g3 0 1 0	# problem d6n6R1R6d05d05
 6 6 1 0 1	# vars, constraints, objectives, ranges, eqns
 4 1	# nonlinear constraints, objectives
 0 0	# network constraints: nonlinear, linear
 6 6 6	# nonlinear vars in constraints, objectives, both
 0 0 0 1	# linear network variables; functions; arith, flags
 0 0 0 0 0	# discrete variables: binary, integer, nonlinear (b,c,o)
 33 6	# nonzeros in Jacobian, gradients
 0 0	# max name lengths: constraints, variables
 0 0 0 0 0	# common exprs: b,c,o,c1,o1
b
0 0.37 2.46
0 0.91 2.16
0 0.88 2.89
0 0.2 2.99
0 0.02 2.63
0 0.44 2.09
r
2 100.268
2 469.925
2 1435.06
2 5839.68
4 12.944
2 31.424
C0
o54
7
o2
o2
n4.47
v0
v2
o2
o2
n5.91
v0
v3
o2
o2
n3.58
v0
v4
o2
o2
n2.16
v1
v3
o2
o2
n1.97
v2
v2
o2
o2
n1.21
v2
v5
o2
o2
n5.51
v5
v5
C1
o54
36
o2
o2
n5.99
v0
v2
o2
o2
n1.77
v0
v3
o2
o2
n3.8
v0
v4
o2
o2
n2.75
v1
v3
o2
o2
n0.49
v2
v2
o2
o2
n0.88
v2
v5
o2
o2
n3.39
v5
v5
o2
o2
o2
n8.35
v0
v0
v2
o2
o2
o2
n7.57
v0
v0
v3
o2
o2
o2
n8.33
v0
v1
v1
o2
o2
o2
n9.38
v0
v1
v2
o2
o2
o2
n9.42
v0
v1
v4
o2
o2
o2
n9.48
v0
v2
v2
o16
o2
o2
o2
n5.47
v0
v2
v3
o2
o2
o2
n3.17
v0
v3
v4
o2
o2
o2
n0.85
v0
v3
v5
o2
o2
o2
n0.77
v0
v4
v4
o2
o2
o2
n6.69
v0
v4
v5
o2
o2
o2
n5.97
v1
v1
v1
o16
o2
o2
o2
n8.26
v1
v1
v4
o2
o2
o2
n4.86
v1
v1
v5
o2
o2
o2
n8.85
v1
v2
v3
o2
o2
o2
n3.52
v1
v3
v3
o2
o2
o2
n0.52
v1
v4
v5
o2
o2
o2
n6.92
v1
v5
v5
o2
o2
o2
n6.9
v2
v2
v4
o2
o2
o2
n7.04
v2
v2
v5
o16
o2
o2
o2
n8.52
v2
v3
v5
o2
o2
o2
n2.93
v2
v5
v5
o2
o2
o2
n5.82
v3
v3
v3
o2
o2
o2
n0.52
v3
v3
v5
o2
o2
o2
n0.25
v3
v4
v4
o2
o2
o2
n5.09
v4
v4
v4
o2
o2
o2
n8.77
v4
v4
v5
o2
o2
o2
n4.12
v4
v5
v5
o2
o2
o2
n2.04
v5
v5
v5
C2
o54
97
o2
o2
n8.04
v0
v2
o2
o2
n4.5
v0
v3
o2
o2
n0.46
v0
v4
o2
o2
n2.87
v1
v3
o2
o2
n8.53
v2
v2
o2
o2
n8.78
v2
v5
o2
o2
n0.08
v5
v5
o2
o2
o2
n3.23
v0
v0
v2
o2
o2
o2
n0.21
v0
v0
v3
o2
o2
o2
n6.68
v0
v1
v1
o2
o2
o2
n4.4
v0
v1
v2
o2
o2
o2
n9.56
v0
v1
v4
o16
o2
o2
o2
n5.17
v0
v2
v2
o2
o2
o2
n4.46
v0
v2
v3
o2
o2
o2
n5.08
v0
v3
v4
o16
o2
o2
o2
n5.62
v0
v3
v5
o2
o2
o2
n3.85
v0
v4
v4
o2
o2
o2
n5.73
v0
v4
v5
o16
o2
o2
o2
n2.49
v1
v1
v1
o2
o2
o2
n5.52
v1
v1
v4
o2
o2
o2
n2.21
v1
v1
v5
o16
o2
o2
o2
n6.47
v1
v2
v3
o2
o2
o2
n0.95
v1
v3
v3
o2
o2
o2
n1.83
v1
v4
v5
o2
o2
o2
n5.25
v1
v5
v5
o16
o2
o2
o2
n6.36
v2
v2
v4
o2
o2
o2
n0.42
v2
v2
v5
o2
o2
o2
n0.07
v2
v3
v5
o2
o2
o2
n6.7
v2
v5
v5
o2
o2
o2
n6.29
v3
v3
v3
o16
o2
o2
o2
n4.29
v3
v3
v5
o2
o2
o2
n9.33
v3
v4
v4
o16
o2
o2
o2
n5.03
v4
v4
v4
o2
o2
o2
n2.15
v4
v4
v5
o2
o2
o2
n3.52
v4
v5
v5
o2
o2
o2
n9.2
v5
v5
v5
o2
o2
o2
o2
n5.63
v0
v0
v0
v2
o2
o2
o2
o2
n4.89
v0
v0
v1
v1
o2
o2
o2
o2
n6.96
v0
v0
v1
v2
o2
o2
o2
o2
n2.92
v0
v0
v2
v5
o2
o2
o2
o2
n9.34
v0
v0
v3
v5
o2
o2
o2
o2
n6.79
v0
v1
v1
v3
o16
o2
o2
o2
o2
n7.97
v0
v1
v1
v4
o2
o2
o2
o2
n6.81
v0
v1
v2
v2
o2
o2
o2
o2
n7.15
v0
v1
v2
v4
o2
o2
o2
o2
n3.98
v0
v1
v2
v5
o2
o2
o2
o2
n7.29
v0
v1
v3
v3
o2
o2
o2
o2
n5.92
v0
v1
v3
v4
o2
o2
o2
o2
n1.18
v0
v1
v3
v5
o16
o2
o2
o2
o2
n5.28
v0
v1
v4
v4
o2
o2
o2
o2
n2.11
v0
v1
v4
v5
o2
o2
o2
o2
n5.94
v0
v1
v5
v5
o2
o2
o2
o2
n1.89
v0
v2
v2
v3
o2
o2
o2
o2
n7.21
v0
v2
v2
v5
o2
o2
o2
o2
n1.42
v0
v2
v4
v4
o16
o2
o2
o2
o2
n1.41
v0
v2
v4
v5
o2
o2
o2
o2
n1.6
v0
v3
v4
v4
o2
o2
o2
o2
n5.26
v0
v3
v5
v5
o2
o2
o2
o2
n7.63
v0
v4
v4
v4
o2
o2
o2
o2
n0.07
v0
v4
v5
v5
o2
o2
o2
o2
n4.17
v0
v5
v5
v5
o2
o2
o2
o2
n1.47
v1
v1
v1
v1
o2
o2
o2
o2
n4.44
v1
v1
v1
v2
o2
o2
o2
o2
n3.56
v1
v1
v1
v3
o16
o2
o2
o2
o2
n0.98
v1
v1
v1
v4
o2
o2
o2
o2
n8.18
v1
v1
v1
v5
o16
o2
o2
o2
o2
n0.87
v1
v1
v2
v2
o2
o2
o2
o2
n4.32
v1
v1
v2
v3
o2
o2
o2
o2
n3.21
v1
v1
v2
v4
o2
o2
o2
o2
n8.12
v1
v1
v3
v3
o2
o2
o2
o2
n1.72
v1
v1
v5
v5
o2
o2
o2
o2
n8.77
v1
v2
v2
v2
o16
o2
o2
o2
o2
n0.25
v1
v2
v2
v3
o2
o2
o2
o2
n0.62
v1
v2
v3
v3
o16
o2
o2
o2
o2
n4.05
v1
v3
v3
v4
o2
o2
o2
o2
n6.72
v1
v3
v4
v4
o2
o2
o2
o2
n4.47
v1
v3
v4
v5
o2
o2
o2
o2
n4.24
v1
v3
v5
v5
o2
o2
o2
o2
n0.13
v2
v2
v2
v2
o2
o2
o2
o2
n7.01
v2
v2
v2
v4
o2
o2
o2
o2
n2.17
v2
v2
v2
v5
o2
o2
o2
o2
n5.49
v2
v2
v3
v4
o2
o2
o2
o2
n6.5
v2
v2
v5
v5
o2
o2
o2
o2
n9.47
v2
v3
v3
v3
o2
o2
o2
o2
n0.83
v2
v3
v3
v5
o2
o2
o2
o2
n3.89
v2
v3
v5
v5
o2
o2
o2
o2
n9.31
v2
v4
v4
v4
o2
o2
o2
o2
n3.03
v2
v4
v4
v5
o2
o2
o2
o2
n2.56
v2
v5
v5
v5
o16
o2
o2
o2
o2
n3.29
v3
v3
v3
v3
o2
o2
o2
o2
n5.94
v3
v3
v3
v4
o2
o2
o2
o2
n0.17
v3
v3
v4
v4
o2
o2
o2
o2
n3.85
v3
v3
v4
v5
o2
o2
o2
o2
n9.36
v3
v4
v4
v4
o2
o2
o2
o2
n2.87
v3
v4
v4
v5
o16
o2
o2
o2
o2
n7.59
v3
v5
v5
v5
o2
o2
o2
o2
n1.55
v4
v4
v5
v5
C3
o54
226
o2
o2
n8.77
v0
v2
o16
o2
o2
n4.85
v0
v3
o2
o2
n5.24
v0
v4
o2
o2
n6.09
v1
v3
o2
o2
n0.4
v2
v2
o2
o2
n7.16
v2
v5
o2
o2
n5.43
v5
v5
o2
o2
o2
n5.18
v0
v0
v2
o2
o2
o2
n3.16
v0
v0
v3
o2
o2
o2
n4.98
v0
v1
v1
o2
o2
o2
n9.65
v0
v1
v2
o2
o2
o2
n5.37
v0
v1
v4
o16
o2
o2
o2
n3.45
v0
v2
v2
o2
o2
o2
n5.29
v0
v2
v3
o2
o2
o2
n2.96
v0
v3
v4
o2
o2
o2
n2.46
v0
v3
v5
o16
o2
o2
o2
n7.15
v0
v4
v4
o2
o2
o2
n2.52
v0
v4
v5
o2
o2
o2
n0.01
v1
v1
v1
o2
o2
o2
n1.32
v1
v1
v4
o2
o2
o2
n3.97
v1
v1
v5
o2
o2
o2
n8.29
v1
v2
v3
o2
o2
o2
n2.63
v1
v3
v3
o2
o2
o2
n3.68
v1
v4
v5
o2
o2
o2
n8.16
v1
v5
v5
o2
o2
o2
n7.38
v2
v2
v4
o16
o2
o2
o2
n3.58
v2
v2
v5
o2
o2
o2
n2.29
v2
v3
v5
o2
o2
o2
n5.37
v2
v5
v5
o2
o2
o2
n9.95
v3
v3
v3
o2
o2
o2
n6.59
v3
v3
v5
o2
o2
o2
n1.23
v3
v4
v4
o2
o2
o2
n5.89
v4
v4
v4
o2
o2
o2
n0.02
v4
v4
v5
o2
o2
o2
n2.7
v4
v5
v5
o2
o2
o2
n2.54
v5
v5
v5
o2
o2
o2
o2
n3.97
v0
v0
v0
v2
o2
o2
o2
o2
n0.23
v0
v0
v1
v1
o2
o2
o2
o2
n2.71
v0
v0
v1
v2
o2
o2
o2
o2
n9.03
v0
v0
v2
v5
o2
o2
o2
o2
n3.58
v0
v0
v3
v5
o2
o2
o2
o2
n2.74
v0
v1
v1
v3
o2
o2
o2
o2
n6.06
v0
v1
v1
v4
o2
o2
o2
o2
n3.42
v0
v1
v2
v2
o2
o2
o2
o2
n0.25
v0
v1
v2
v4
o2
o2
o2
o2
n6.54
v0
v1
v2
v5
o2
o2
o2
o2
n5.81
v0
v1
v3
v3
o2
o2
o2
o2
n3.71
v0
v1
v3
v4
o2
o2
o2
o2
n9.27
v0
v1
v3
v5
o16
o2
o2
o2
o2
n0.88
v0
v1
v4
v4
o2
o2
o2
o2
n9.96
v0
v1
v4
v5
o2
o2
o2
o2
n4.71
v0
v1
v5
v5
o2
o2
o2
o2
n0.09
v0
v2
v2
v3
o16
o2
o2
o2
o2
n5
v0
v2
v2
v5
o2
o2
o2
o2
n8.97
v0
v2
v4
v4
o16
o2
o2
o2
o2
n5.95
v0
v2
v4
v5
o2
o2
o2
o2
n7
v0
v3
v4
v4
o2
o2
o2
o2
n4.11
v0
v3
v5
v5
o2
o2
o2
o2
n9.54
v0
v4
v4
v4
o16
o2
o2
o2
o2
n5.77
v0
v4
v5
v5
o2
o2
o2
o2
n6.03
v0
v5
v5
v5
o2
o2
o2
o2
n1.64
v1
v1
v1
v1
o2
o2
o2
o2
n4.7
v1
v1
v1
v2
o2
o2
o2
o2
n1.65
v1
v1
v1
v3
o2
o2
o2
o2
n8.13
v1
v1
v1
v4
o2
o2
o2
o2
n7.67
v1
v1
v1
v5
o2
o2
o2
o2
n0.04
v1
v1
v2
v2
o2
o2
o2
o2
n6.86
v1
v1
v2
v3
o2
o2
o2
o2
n8.54
v1
v1
v2
v4
o16
o2
o2
o2
o2
n3.7
v1
v1
v3
v3
o16
o2
o2
o2
o2
n6.27
v1
v1
v5
v5
o2
o2
o2
o2
n3.24
v1
v2
v2
v2
o2
o2
o2
o2
n2.53
v1
v2
v2
v3
o2
o2
o2
o2
n3.6
v1
v2
v3
v3
o2
o2
o2
o2
n8.03
v1
v3
v3
v4
o16
o2
o2
o2
o2
n0.37
v1
v3
v4
v4
o2
o2
o2
o2
n7.24
v1
v3
v4
v5
o2
o2
o2
o2
n0.86
v1
v3
v5
v5
o16
o2
o2
o2
o2
n8.9
v2
v2
v2
v2
o2
o2
o2
o2
n0.88
v2
v2
v2
v4
o2
o2
o2
o2
n9.87
v2
v2
v2
v5
o2
o2
o2
o2
n2.03
v2
v2
v3
v4
o2
o2
o2
o2
n2.7
v2
v2
v5
v5
o2
o2
o2
o2
n2.07
v2
v3
v3
v3
o2
o2
o2
o2
n2.14
v2
v3
v3
v5
o2
o2
o2
o2
n6.49
v2
v3
v5
v5
o2
o2
o2
o2
n1.04
v2
v4
v4
v4
o16
o2
o2
o2
o2
n3.76
v2
v4
v4
v5
o2
o2
o2
o2
n0.86
v2
v5
v5
v5
o2
o2
o2
o2
n2.39
v3
v3
v3
v3
o2
o2
o2
o2
n7.09
v3
v3
v3
v4
o2
o2
o2
o2
n2.36
v3
v3
v4
v4
o16
o2
o2
o2
o2
n4.94
v3
v3
v4
v5
o2
o2
o2
o2
n8.9
v3
v4
v4
v4
o2
o2
o2
o2
n5.62
v3
v4
v4
v5
o16
o2
o2
o2
o2
n1.29
v3
v5
v5
v5
o16
o2
o2
o2
o2
n8.48
v4
v4
v5
v5
o2
o2
o2
o2
o2
n4.67
v0
v0
v0
v0
v0
o2
o2
o2
o2
o2
n9.31
v0
v0
v0
v0
v1
o2
o2
o2
o2
o2
n7.51
v0
v0
v0
v0
v2
o2
o2
o2
o2
o2
n0.23
v0
v0
v0
v0
v5
o2
o2
o2
o2
o2
n2.59
v0
v0
v0
v1
v1
o2
o2
o2
o2
o2
n1.28
v0
v0
v0
v1
v3
o2
o2
o2
o2
o2
n4.41
v0
v0
v0
v1
v5
o2
o2
o2
o2
o2
n9.24
v0
v0
v0
v2
v3
o2
o2
o2
o2
o2
n0.7
v0
v0
v0
v2
v4
o2
o2
o2
o2
o2
n3.85
v0
v0
v0
v3
v4
o16
o2
o2
o2
o2
o2
n0.92
v0
v0
v0
v3
v5
o2
o2
o2
o2
o2
n6.77
v0
v0
v0
v4
v5
o2
o2
o2
o2
o2
n9.51
v0
v0
v0
v5
v5
o2
o2
o2
o2
o2
n3.63
v0
v0
v1
v1
v2
o2
o2
o2
o2
o2
n6.81
v0
v0
v1
v1
v3
o2
o2
o2
o2
o2
n4.46
v0
v0
v1
v1
v4
o2
o2
o2
o2
o2
n5.37
v0
v0
v1
v1
v5
o2
o2
o2
o2
o2
n2.78
v0
v0
v1
v2
v4
o2
o2
o2
o2
o2
n4.37
v0
v0
v1
v2
v5
o2
o2
o2
o2
o2
n8.73
v0
v0
v1
v3
v3
o2
o2
o2
o2
o2
n0.28
v0
v0
v1
v4
v4
o2
o2
o2
o2
o2
n6.53
v0
v0
v1
v4
v5
o2
o2
o2
o2
o2
n6.19
v0
v0
v1
v5
v5
o2
o2
o2
o2
o2
n1.48
v0
v0
v2
v2
v4
o16
o2
o2
o2
o2
o2
n7.86
v0
v0
v2
v3
v3
o2
o2
o2
o2
o2
n7.01
v0
v0
v2
v3
v4
o2
o2
o2
o2
o2
n9.28
v0
v0
v2
v3
v5
o2
o2
o2
o2
o2
n6.94
v0
v0
v2
v4
v4
o2
o2
o2
o2
o2
n5.5
v0
v0
v2
v5
v5
o2
o2
o2
o2
o2
n3.27
v0
v0
v3
v3
v5
o2
o2
o2
o2
o2
n5.47
v0
v0
v3
v4
v5
o2
o2
o2
o2
o2
n4.92
v0
v0
v4
v4
v5
o2
o2
o2
o2
o2
n2.94
v0
v0
v4
v5
v5
o2
o2
o2
o2
o2
n7.57
v0
v0
v5
v5
v5
o2
o2
o2
o2
o2
n7.94
v0
v1
v1
v1
v1
o2
o2
o2
o2
o2
n0.14
v0
v1
v1
v1
v2
o2
o2
o2
o2
o2
n6.92
v0
v1
v1
v2
v4
o2
o2
o2
o2
o2
n7.91
v0
v1
v1
v2
v5
o2
o2
o2
o2
o2
n4.12
v0
v1
v1
v3
v5
o2
o2
o2
o2
o2
n7.94
v0
v1
v2
v2
v3
o2
o2
o2
o2
o2
n2.2
v0
v1
v2
v2
v4
o2
o2
o2
o2
o2
n6.83
v0
v1
v2
v2
v5
o2
o2
o2
o2
o2
n4.77
v0
v1
v2
v4
v4
o2
o2
o2
o2
o2
n6.21
v0
v1
v2
v4
v5
o2
o2
o2
o2
o2
n8.76
v0
v1
v2
v5
v5
o2
o2
o2
o2
o2
n6.44
v0
v1
v3
v3
v4
o2
o2
o2
o2
o2
n9.34
v0
v1
v3
v4
v4
o2
o2
o2
o2
o2
n3.51
v0
v1
v4
v4
v4
o2
o2
o2
o2
o2
n5.28
v0
v1
v4
v4
v5
o2
o2
o2
o2
o2
n9.74
v0
v1
v4
v5
v5
o2
o2
o2
o2
o2
n7.56
v0
v2
v2
v2
v4
o2
o2
o2
o2
o2
n3.48
v0
v2
v2
v2
v5
o2
o2
o2
o2
o2
n8.91
v0
v2
v2
v3
v3
o2
o2
o2
o2
o2
n8.1
v0
v2
v2
v3
v5
o2
o2
o2
o2
o2
n7.32
v0
v2
v2
v5
v5
o2
o2
o2
o2
o2
n5.58
v0
v2
v3
v3
v3
o2
o2
o2
o2
o2
n1.16
v0
v2
v3
v3
v4
o2
o2
o2
o2
o2
n5.12
v0
v2
v3
v5
v5
o2
o2
o2
o2
o2
n8.74
v0
v2
v4
v4
v4
o2
o2
o2
o2
o2
n1.91
v0
v3
v3
v3
v5
o2
o2
o2
o2
o2
n0.21
v0
v3
v3
v4
v5
o2
o2
o2
o2
o2
n6.59
v0
v3
v3
v5
v5
o2
o2
o2
o2
o2
n4.54
v0
v3
v4
v4
v4
o2
o2
o2
o2
o2
n0.44
v0
v3
v4
v5
v5
o2
o2
o2
o2
o2
n9.36
v0
v3
v5
v5
v5
o2
o2
o2
o2
o2
n6.87
v0
v4
v4
v4
v4
o2
o2
o2
o2
o2
n6.62
v0
v4
v4
v4
v5
o2
o2
o2
o2
o2
n4.38
v0
v4
v5
v5
v5
o2
o2
o2
o2
o2
n1.71
v1
v1
v1
v1
v2
o2
o2
o2
o2
o2
n1.34
v1
v1
v1
v1
v4
o2
o2
o2
o2
o2
n8.95
v1
v1
v1
v2
v2
o2
o2
o2
o2
o2
n7.89
v1
v1
v1
v2
v3
o2
o2
o2
o2
o2
n1.23
v1
v1
v1
v5
v5
o2
o2
o2
o2
o2
n5.26
v1
v1
v2
v2
v2
o2
o2
o2
o2
o2
n6.63
v1
v1
v2
v2
v3
o2
o2
o2
o2
o2
n7.93
v1
v1
v2
v2
v4
o2
o2
o2
o2
o2
n9.88
v1
v1
v2
v2
v5
o2
o2
o2
o2
o2
n8.75
v1
v1
v2
v3
v4
o2
o2
o2
o2
o2
n1.28
v1
v1
v2
v4
v5
o2
o2
o2
o2
o2
n2.5
v1
v1
v2
v5
v5
o2
o2
o2
o2
o2
n1.18
v1
v1
v3
v4
v4
o2
o2
o2
o2
o2
n8.14
v1
v1
v3
v5
v5
o2
o2
o2
o2
o2
n2.59
v1
v1
v4
v5
v5
o2
o2
o2
o2
o2
n5.01
v1
v1
v5
v5
v5
o2
o2
o2
o2
o2
n9.88
v1
v2
v2
v3
v3
o2
o2
o2
o2
o2
n3.44
v1
v2
v2
v3
v5
o16
o2
o2
o2
o2
o2
n6.24
v1
v2
v2
v4
v4
o2
o2
o2
o2
o2
n4.92
v1
v2
v2
v4
v5
o16
o2
o2
o2
o2
o2
n7.95
v1
v2
v2
v5
v5
o2
o2
o2
o2
o2
n2.2
v1
v2
v3
v3
v3
o2
o2
o2
o2
o2
n7.94
v1
v2
v3
v4
v5
o16
o2
o2
o2
o2
o2
n4.72
v1
v2
v4
v4
v5
o2
o2
o2
o2
o2
n6.81
v1
v2
v4
v5
v5
o2
o2
o2
o2
o2
n9.5
v1
v3
v3
v3
v4
o2
o2
o2
o2
o2
n3.82
v1
v3
v3
v3
v5
o2
o2
o2
o2
o2
n3.04
v1
v3
v3
v4
v4
o2
o2
o2
o2
o2
n5.82
v1
v3
v3
v4
v5
o2
o2
o2
o2
o2
n4.26
v1
v3
v4
v5
v5
o2
o2
o2
o2
o2
n7
v1
v3
v5
v5
v5
o2
o2
o2
o2
o2
n4.08
v1
v4
v4
v5
v5
o2
o2
o2
o2
o2
n6.99
v1
v5
v5
v5
v5
o2
o2
o2
o2
o2
n1.76
v2
v2
v2
v2
v4
o2
o2
o2
o2
o2
n0.48
v2
v2
v2
v3
v4
o2
o2
o2
o2
o2
n3.3
v2
v2
v2
v4
v5
o2
o2
o2
o2
o2
n5.93
v2
v2
v3
v3
v3
o2
o2
o2
o2
o2
n2.45
v2
v2
v3
v3
v5
o2
o2
o2
o2
o2
n6.22
v2
v2
v3
v5
v5
o2
o2
o2
o2
o2
n9.29
v2
v2
v5
v5
v5
o2
o2
o2
o2
o2
n9.14
v2
v3
v3
v3
v3
o16
o2
o2
o2
o2
o2
n6.99
v2
v3
v3
v4
v5
o2
o2
o2
o2
o2
n0.47
v2
v3
v3
v5
v5
o2
o2
o2
o2
o2
n1.94
v2
v3
v4
v4
v4
o2
o2
o2
o2
o2
n7.44
v2
v4
v4
v4
v4
o2
o2
o2
o2
o2
n7.52
v2
v4
v4
v4
v5
o2
o2
o2
o2
o2
n5.43
v2
v4
v4
v5
v5
o2
o2
o2
o2
o2
n6.91
v2
v5
v5
v5
v5
o2
o2
o2
o2
o2
n5.71
v3
v3
v3
v3
v4
o2
o2
o2
o2
o2
n5.22
v3
v3
v3
v4
v4
o2
o2
o2
o2
o2
n7.03
v3
v3
v3
v4
v5
o2
o2
o2
o2
o2
n6.22
v3
v3
v3
v5
v5
o2
o2
o2
o2
o2
n8.86
v3
v3
v4
v4
v4
o2
o2
o2
o2
o2
n4.07
v3
v4
v4
v4
v4
o2
o2
o2
o2
o2
n9.09
v3
v4
v4
v4
v5
o2
o2
o2
o2
o2
n5.21
v3
v4
v4
v5
v5
o2
o2
o2
o2
o2
n4.06
v3
v5
v5
v5
v5
o2
o2
o2
o2
o2
n0.93
v4
v4
v4
v4
v4
o16
o2
o2
o2
o2
o2
n3.64
v4
v4
v4
v5
v5
o16
o2
o2
o2
o2
o2
n5.69
v4
v4
v5
v5
v5
o2
o2
o2
o2
o2
n9.23
v5
v5
v5
v5
v5
C4
n0
C5
n0
O0 0
o54
457
o2
o2
n8.37
v0
v2
o2
o2
n2.77
v0
v3
o2
o2
n6.04
v0
v4
o16
o2
o2
n5.04
v1
v3
o2
o2
n5.09
v2
v2
o2
o2
n6.51
v2
v5
o2
o2
n8.15
v5
v5
o2
o2
o2
n6.52
v0
v0
v2
o2
o2
o2
n2.96
v0
v0
v3
o2
o2
o2
n6.76
v0
v1
v1
o16
o2
o2
o2
n0.17
v0
v1
v2
o2
o2
o2
n2.95
v0
v1
v4
o16
o2
o2
o2
n1.31
v0
v2
v2
o2
o2
o2
n9.55
v0
v2
v3
o2
o2
o2
n3.68
v0
v3
v4
o2
o2
o2
n6.54
v0
v3
v5
o2
o2
o2
n3.8
v0
v4
v4
o2
o2
o2
n2.3
v0
v4
v5
o2
o2
o2
n5.74
v1
v1
v1
o2
o2
o2
n1.65
v1
v1
v4
o2
o2
o2
n6.13
v1
v1
v5
o2
o2
o2
n3.16
v1
v2
v3
o2
o2
o2
n2.27
v1
v3
v3
o2
o2
o2
n4.72
v1
v4
v5
o2
o2
o2
n4.95
v1
v5
v5
o2
o2
o2
n1.5
v2
v2
v4
o2
o2
o2
n2.58
v2
v2
v5
o16
o2
o2
o2
n5.36
v2
v3
v5
o2
o2
o2
n8.08
v2
v5
v5
o2
o2
o2
n9.65
v3
v3
v3
o2
o2
o2
n5.23
v3
v3
v5
o2
o2
o2
n8.73
v3
v4
v4
o2
o2
o2
n5.95
v4
v4
v4
o2
o2
o2
n5.92
v4
v4
v5
o16
o2
o2
o2
n5.08
v4
v5
v5
o2
o2
o2
n9.24
v5
v5
v5
o2
o2
o2
o2
n4.29
v0
v0
v0
v2
o2
o2
o2
o2
n8.85
v0
v0
v1
v1
o2
o2
o2
o2
n1.6
v0
v0
v1
v2
o16
o2
o2
o2
o2
n5.32
v0
v0
v2
v5
o2
o2
o2
o2
n8.09
v0
v0
v3
v5
o2
o2
o2
o2
n2.72
v0
v1
v1
v3
o2
o2
o2
o2
n8.44
v0
v1
v1
v4
o2
o2
o2
o2
n5.66
v0
v1
v2
v2
o2
o2
o2
o2
n6.76
v0
v1
v2
v4
o2
o2
o2
o2
n4.33
v0
v1
v2
v5
o2
o2
o2
o2
n4.29
v0
v1
v3
v3
o2
o2
o2
o2
n6.54
v0
v1
v3
v4
o16
o2
o2
o2
o2
n0.63
v0
v1
v3
v5
o2
o2
o2
o2
n0.97
v0
v1
v4
v4
o2
o2
o2
o2
n4.91
v0
v1
v4
v5
o2
o2
o2
o2
n0.47
v0
v1
v5
v5
o2
o2
o2
o2
n8.6
v0
v2
v2
v3
o2
o2
o2
o2
n9.71
v0
v2
v2
v5
o2
o2
o2
o2
n6.44
v0
v2
v4
v4
o2
o2
o2
o2
n6.06
v0
v2
v4
v5
o2
o2
o2
o2
n7.09
v0
v3
v4
v4
o2
o2
o2
o2
n7.88
v0
v3
v5
v5
o16
o2
o2
o2
o2
n0.02
v0
v4
v4
v4
o2
o2
o2
o2
n9.19
v0
v4
v5
v5
o16
o2
o2
o2
o2
n0.27
v0
v5
v5
v5
o2
o2
o2
o2
n4.86
v1
v1
v1
v1
o2
o2
o2
o2
n7.58
v1
v1
v1
v2
o2
o2
o2
o2
n5.36
v1
v1
v1
v3
o2
o2
o2
o2
n1.47
v1
v1
v1
v4
o2
o2
o2
o2
n5.06
v1
v1
v1
v5
o2
o2
o2
o2
n8.89
v1
v1
v2
v2
o2
o2
o2
o2
n3.33
v1
v1
v2
v3
o16
o2
o2
o2
o2
n5.87
v1
v1
v2
v4
o2
o2
o2
o2
n2.2
v1
v1
v3
v3
o2
o2
o2
o2
n9.92
v1
v1
v5
v5
o16
o2
o2
o2
o2
n10
v1
v2
v2
v2
o16
o2
o2
o2
o2
n4.5
v1
v2
v2
v3
o2
o2
o2
o2
n4.77
v1
v2
v3
v3
o2
o2
o2
o2
n2.39
v1
v3
v3
v4
o2
o2
o2
o2
n6.58
v1
v3
v4
v4
o2
o2
o2
o2
n9.35
v1
v3
v4
v5
o2
o2
o2
o2
n2.88
v1
v3
v5
v5
o2
o2
o2
o2
n4.61
v2
v2
v2
v2
o2
o2
o2
o2
n5.9
v2
v2
v2
v4
o2
o2
o2
o2
n9.9
v2
v2
v2
v5
o16
o2
o2
o2
o2
n6.15
v2
v2
v3
v4
o2
o2
o2
o2
n3.5
v2
v2
v5
v5
o2
o2
o2
o2
n1.11
v2
v3
v3
v3
o2
o2
o2
o2
n0.77
v2
v3
v3
v5
o2
o2
o2
o2
n3.09
v2
v3
v5
v5
o2
o2
o2
o2
n7.96
v2
v4
v4
v4
o2
o2
o2
o2
n5.52
v2
v4
v4
v5
o2
o2
o2
o2
n0.65
v2
v5
v5
v5
o2
o2
o2
o2
n1.5
v3
v3
v3
v3
o16
o2
o2
o2
o2
n3.44
v3
v3
v3
v4
o2
o2
o2
o2
n3.78
v3
v3
v4
v4
o2
o2
o2
o2
n2.54
v3
v3
v4
v5
o2
o2
o2
o2
n0.29
v3
v4
v4
v4
o2
o2
o2
o2
n7.72
v3
v4
v4
v5
o2
o2
o2
o2
n4.19
v3
v5
v5
v5
o2
o2
o2
o2
n5.18
v4
v4
v5
v5
o2
o2
o2
o2
o2
n2.49
v0
v0
v0
v0
v0
o2
o2
o2
o2
o2
n8.02
v0
v0
v0
v0
v1
o2
o2
o2
o2
o2
n2.42
v0
v0
v0
v0
v2
o2
o2
o2
o2
o2
n5.72
v0
v0
v0
v0
v5
o2
o2
o2
o2
o2
n9.47
v0
v0
v0
v1
v1
o2
o2
o2
o2
o2
n9.31
v0
v0
v0
v1
v3
o2
o2
o2
o2
o2
n6.3
v0
v0
v0
v1
v5
o2
o2
o2
o2
o2
n3.7
v0
v0
v0
v2
v3
o2
o2
o2
o2
o2
n6.46
v0
v0
v0
v2
v4
o16
o2
o2
o2
o2
o2
n3.85
v0
v0
v0
v3
v4
o2
o2
o2
o2
o2
n2.05
v0
v0
v0
v3
v5
o16
o2
o2
o2
o2
o2
n6.21
v0
v0
v0
v4
v5
o2
o2
o2
o2
o2
n9.36
v0
v0
v0
v5
v5
o2
o2
o2
o2
o2
n2.06
v0
v0
v1
v1
v2
o16
o2
o2
o2
o2
o2
n1.58
v0
v0
v1
v1
v3
o2
o2
o2
o2
o2
n4.37
v0
v0
v1
v1
v4
o2
o2
o2
o2
o2
n2.64
v0
v0
v1
v1
v5
o2
o2
o2
o2
o2
n4.57
v0
v0
v1
v2
v4
o2
o2
o2
o2
o2
n1.17
v0
v0
v1
v2
v5
o2
o2
o2
o2
o2
n1.01
v0
v0
v1
v3
v3
o2
o2
o2
o2
o2
n8.72
v0
v0
v1
v4
v4
o2
o2
o2
o2
o2
n5.51
v0
v0
v1
v4
v5
o16
o2
o2
o2
o2
o2
n1.34
v0
v0
v1
v5
v5
o2
o2
o2
o2
o2
n9.62
v0
v0
v2
v2
v4
o2
o2
o2
o2
o2
n8.4
v0
v0
v2
v3
v3
o2
o2
o2
o2
o2
n7.14
v0
v0
v2
v3
v4
o2
o2
o2
o2
o2
n7.97
v0
v0
v2
v3
v5
o2
o2
o2
o2
o2
n4.52
v0
v0
v2
v4
v4
o2
o2
o2
o2
o2
n2.61
v0
v0
v2
v5
v5
o2
o2
o2
o2
o2
n5.6
v0
v0
v3
v3
v5
o2
o2
o2
o2
o2
n4.71
v0
v0
v3
v4
v5
o2
o2
o2
o2
o2
n2.34
v0
v0
v4
v4
v5
o2
o2
o2
o2
o2
n5.49
v0
v0
v4
v5
v5
o2
o2
o2
o2
o2
n8.05
v0
v0
v5
v5
v5
o2
o2
o2
o2
o2
n6.6
v0
v1
v1
v1
v1
o2
o2
o2
o2
o2
n4.72
v0
v1
v1
v1
v2
o2
o2
o2
o2
o2
n8.57
v0
v1
v1
v2
v4
o2
o2
o2
o2
o2
n0.95
v0
v1
v1
v2
v5
o2
o2
o2
o2
o2
n4.94
v0
v1
v1
v3
v5
o2
o2
o2
o2
o2
n2.19
v0
v1
v2
v2
v3
o16
o2
o2
o2
o2
o2
n6.33
v0
v1
v2
v2
v4
o2
o2
o2
o2
o2
n9.62
v0
v1
v2
v2
v5
o2
o2
o2
o2
o2
n3.42
v0
v1
v2
v4
v4
o2
o2
o2
o2
o2
n9.46
v0
v1
v2
v4
v5
o2
o2
o2
o2
o2
n2.92
v0
v1
v2
v5
v5
o2
o2
o2
o2
o2
n9.11
v0
v1
v3
v3
v4
o2
o2
o2
o2
o2
n5.56
v0
v1
v3
v4
v4
o16
o2
o2
o2
o2
o2
n1.79
v0
v1
v4
v4
v4
o2
o2
o2
o2
o2
n0.22
v0
v1
v4
v4
v5
o2
o2
o2
o2
o2
n6.2
v0
v1
v4
v5
v5
o16
o2
o2
o2
o2
o2
n3.25
v0
v2
v2
v2
v4
o2
o2
o2
o2
o2
n2.72
v0
v2
v2
v2
v5
o2
o2
o2
o2
o2
n7.02
v0
v2
v2
v3
v3
o2
o2
o2
o2
o2
n2.8
v0
v2
v2
v3
v5
o2
o2
o2
o2
o2
n6.72
v0
v2
v2
v5
v5
o2
o2
o2
o2
o2
n3.01
v0
v2
v3
v3
v3
o2
o2
o2
o2
o2
n9.61
v0
v2
v3
v3
v4
o2
o2
o2
o2
o2
n0.44
v0
v2
v3
v5
v5
o2
o2
o2
o2
o2
n5.61
v0
v2
v4
v4
v4
o2
o2
o2
o2
o2
n0.83
v0
v3
v3
v3
v5
o16
o2
o2
o2
o2
o2
n3.47
v0
v3
v3
v4
v5
o2
o2
o2
o2
o2
n6.17
v0
v3
v3
v5
v5
o16
o2
o2
o2
o2
o2
n1.39
v0
v3
v4
v4
v4
o2
o2
o2
o2
o2
n3.21
v0
v3
v4
v5
v5
o2
o2
o2
o2
o2
n6.34
v0
v3
v5
v5
v5
o2
o2
o2
o2
o2
n9.55
v0
v4
v4
v4
v4
o2
o2
o2
o2
o2
n0.98
v0
v4
v4
v4
v5
o2
o2
o2
o2
o2
n8.73
v0
v4
v5
v5
v5
o2
o2
o2
o2
o2
n2.41
v1
v1
v1
v1
v2
o2
o2
o2
o2
o2
n1.04
v1
v1
v1
v1
v4
o2
o2
o2
o2
o2
n1.63
v1
v1
v1
v2
v2
o16
o2
o2
o2
o2
o2
n1.48
v1
v1
v1
v2
v3
o2
o2
o2
o2
o2
n7.89
v1
v1
v1
v5
v5
o2
o2
o2
o2
o2
n1.53
v1
v1
v2
v2
v2
o2
o2
o2
o2
o2
n7.05
v1
v1
v2
v2
v3
o2
o2
o2
o2
o2
n6.24
v1
v1
v2
v2
v4
o2
o2
o2
o2
o2
n7.74
v1
v1
v2
v2
v5
o2
o2
o2
o2
o2
n3.18
v1
v1
v2
v3
v4
o2
o2
o2
o2
o2
n4.81
v1
v1
v2
v4
v5
o2
o2
o2
o2
o2
n4.91
v1
v1
v2
v5
v5
o2
o2
o2
o2
o2
n3.66
v1
v1
v3
v4
v4
o2
o2
o2
o2
o2
n1.45
v1
v1
v3
v5
v5
o16
o2
o2
o2
o2
o2
n4.95
v1
v1
v4
v5
v5
o2
o2
o2
o2
o2
n4.27
v1
v1
v5
v5
v5
o2
o2
o2
o2
o2
n3.39
v1
v2
v2
v3
v3
o2
o2
o2
o2
o2
n8.49
v1
v2
v2
v3
v5
o2
o2
o2
o2
o2
n9.9
v1
v2
v2
v4
v4
o2
o2
o2
o2
o2
n4.83
v1
v2
v2
v4
v5
o2
o2
o2
o2
o2
n1.17
v1
v2
v2
v5
v5
o2
o2
o2
o2
o2
n7.66
v1
v2
v3
v3
v3
o2
o2
o2
o2
o2
n5.55
v1
v2
v3
v4
v5
o2
o2
o2
o2
o2
n1.1
v1
v2
v4
v4
v5
o2
o2
o2
o2
o2
n9.54
v1
v2
v4
v5
v5
o2
o2
o2
o2
o2
n9.35
v1
v3
v3
v3
v4
o2
o2
o2
o2
o2
n3.7
v1
v3
v3
v3
v5
o2
o2
o2
o2
o2
n3.03
v1
v3
v3
v4
v4
o2
o2
o2
o2
o2
n2.32
v1
v3
v3
v4
v5
o2
o2
o2
o2
o2
n8.07
v1
v3
v4
v5
v5
o2
o2
o2
o2
o2
n5.65
v1
v3
v5
v5
v5
o2
o2
o2
o2
o2
n8.65
v1
v4
v4
v5
v5
o2
o2
o2
o2
o2
n8.9
v1
v5
v5
v5
v5
o2
o2
o2
o2
o2
n0.77
v2
v2
v2
v2
v4
o2
o2
o2
o2
o2
n7.1
v2
v2
v2
v3
v4
o2
o2
o2
o2
o2
n8.07
v2
v2
v2
v4
v5
o2
o2
o2
o2
o2
n9.7
v2
v2
v3
v3
v3
o2
o2
o2
o2
o2
n6.39
v2
v2
v3
v3
v5
o2
o2
o2
o2
o2
n4.27
v2
v2
v3
v5
v5
o2
o2
o2
o2
o2
n8.67
v2
v2
v5
v5
v5
o2
o2
o2
o2
o2
n2.97
v2
v3
v3
v3
v3
o2
o2
o2
o2
o2
n6.71
v2
v3
v3
v4
v5
o2
o2
o2
o2
o2
n1.29
v2
v3
v3
v5
v5
o2
o2
o2
o2
o2
n1.5
v2
v3
v4
v4
v4
o2
o2
o2
o2
o2
n2.76
v2
v4
v4
v4
v4
o2
o2
o2
o2
o2
n8.39
v2
v4
v4
v4
v5
o2
o2
o2
o2
o2
n8.87
v2
v4
v4
v5
v5
o2
o2
o2
o2
o2
n9.03
v2
v5
v5
v5
v5
o2
o2
o2
o2
o2
n8.23
v3
v3
v3
v3
v4
o2
o2
o2
o2
o2
n6.3
v3
v3
v3
v4
v4
o16
o2
o2
o2
o2
o2
n4.09
v3
v3
v3
v4
v5
o2
o2
o2
o2
o2
n4.07
v3
v3
v3
v5
v5
o2
o2
o2
o2
o2
n4.11
v3
v3
v4
v4
v4
o2
o2
o2
o2
o2
n8.12
v3
v4
v4
v4
v4
o2
o2
o2
o2
o2
n1.64
v3
v4
v4
v4
v5
o2
o2
o2
o2
o2
n9.97
v3
v4
v4
v5
v5
o2
o2
o2
o2
o2
n2.47
v3
v5
v5
v5
v5
o16
o2
o2
o2
o2
o2
n0.1
v4
v4
v4
v4
v4
o2
o2
o2
o2
o2
n6.11
v4
v4
v4
v5
v5
o2
o2
o2
o2
o2
n2.06
v4
v4
v5
v5
v5
o16
o2
o2
o2
o2
o2
n5.74
v5
v5
v5
v5
v5
o2
o2
o2
o2
o2
o2
n4.19
v0
v0
v0
v0
v0
v0
o2
o2
o2
o2
o2
o2
n5.71
v0
v0
v0
v0
v1
v1
o2
o2
o2
o2
o2
o2
n0.35
v0
v0
v0
v0
v1
v4
o2
o2
o2
o2
o2
o2
n0.96
v0
v0
v0
v0
v2
v2
o2
o2
o2
o2
o2
o2
n6.33
v0
v0
v0
v0
v2
v5
o2
o2
o2
o2
o2
o2
n7.07
v0
v0
v0
v0
v3
v3
o2
o2
o2
o2
o2
o2
n3.47
v0
v0
v0
v0
v4
v4
o2
o2
o2
o2
o2
o2
n5.29
v0
v0
v0
v0
v4
v5
o2
o2
o2
o2
o2
o2
n6.02
v0
v0
v0
v1
v1
v1
o2
o2
o2
o2
o2
o2
n1.43
v0
v0
v0
v1
v2
v3
o2
o2
o2
o2
o2
o2
n3.88
v0
v0
v0
v1
v2
v4
o2
o2
o2
o2
o2
o2
n2.77
v0
v0
v0
v1
v2
v5
o2
o2
o2
o2
o2
o2
n7.16
v0
v0
v0
v1
v3
v5
o16
o2
o2
o2
o2
o2
o2
n2
v0
v0
v0
v1
v4
v5
o2
o2
o2
o2
o2
o2
n4.29
v0
v0
v0
v1
v5
v5
o2
o2
o2
o2
o2
o2
n2.31
v0
v0
v0
v2
v2
v3
o2
o2
o2
o2
o2
o2
n0.08
v0
v0
v0
v2
v2
v4
o2
o2
o2
o2
o2
o2
n2.59
v0
v0
v0
v2
v2
v5
o2
o2
o2
o2
o2
o2
n5.38
v0
v0
v0
v2
v3
v3
o2
o2
o2
o2
o2
o2
n6.97
v0
v0
v0
v2
v3
v4
o16
o2
o2
o2
o2
o2
o2
n4.91
v0
v0
v0
v2
v3
v5
o2
o2
o2
o2
o2
o2
n7.52
v0
v0
v0
v2
v4
v4
o2
o2
o2
o2
o2
o2
n4.75
v0
v0
v0
v2
v4
v5
o16
o2
o2
o2
o2
o2
o2
n4.47
v0
v0
v0
v3
v3
v5
o2
o2
o2
o2
o2
o2
n6.12
v0
v0
v0
v3
v4
v5
o2
o2
o2
o2
o2
o2
n2.72
v0
v0
v0
v3
v5
v5
o16
o2
o2
o2
o2
o2
o2
n7.06
v0
v0
v0
v4
v4
v4
o2
o2
o2
o2
o2
o2
n8.92
v0
v0
v0
v4
v4
v5
o16
o2
o2
o2
o2
o2
o2
n8.35
v0
v0
v0
v4
v5
v5
o2
o2
o2
o2
o2
o2
n8.1
v0
v0
v1
v1
v1
v5
o2
o2
o2
o2
o2
o2
n5.56
v0
v0
v1
v1
v2
v2
o2
o2
o2
o2
o2
o2
n3.86
v0
v0
v1
v1
v2
v3
o2
o2
o2
o2
o2
o2
n3.47
v0
v0
v1
v1
v2
v4
o16
o2
o2
o2
o2
o2
o2
n1.26
v0
v0
v1
v1
v2
v5
o2
o2
o2
o2
o2
o2
n4.71
v0
v0
v1
v1
v3
v3
o2
o2
o2
o2
o2
o2
n6.48
v0
v0
v1
v1
v3
v4
o2
o2
o2
o2
o2
o2
n8.91
v0
v0
v1
v1
v4
v4
o2
o2
o2
o2
o2
o2
n2.27
v0
v0
v1
v1
v4
v5
o2
o2
o2
o2
o2
o2
n4.18
v0
v0
v1
v2
v2
v2
o2
o2
o2
o2
o2
o2
n3.19
v0
v0
v1
v2
v3
v3
o2
o2
o2
o2
o2
o2
n7.24
v0
v0
v1
v2
v3
v5
o2
o2
o2
o2
o2
o2
n9.88
v0
v0
v1
v2
v5
v5
o2
o2
o2
o2
o2
o2
n4
v0
v0
v1
v3
v3
v3
o2
o2
o2
o2
o2
o2
n6.29
v0
v0
v1
v3
v5
v5
o16
o2
o2
o2
o2
o2
o2
n6.96
v0
v0
v1
v4
v4
v4
o2
o2
o2
o2
o2
o2
n8.89
v0
v0
v1
v4
v4
v5
o2
o2
o2
o2
o2
o2
n1.05
v0
v0
v1
v4
v5
v5
o2
o2
o2
o2
o2
o2
n2.08
v0
v0
v2
v2
v2
v3
o2
o2
o2
o2
o2
o2
n4.59
v0
v0
v2
v2
v2
v5
o2
o2
o2
o2
o2
o2
n8.73
v0
v0
v2
v2
v3
v4
o2
o2
o2
o2
o2
o2
n6.72
v0
v0
v2
v2
v4
v4
o2
o2
o2
o2
o2
o2
n0.01
v0
v0
v2
v3
v3
v5
o2
o2
o2
o2
o2
o2
n8.01
v0
v0
v2
v3
v4
v4
o2
o2
o2
o2
o2
o2
n3.42
v0
v0
v2
v3
v4
v5
o16
o2
o2
o2
o2
o2
o2
n5.86
v0
v0
v2
v4
v4
v4
o2
o2
o2
o2
o2
o2
n3.29
v0
v0
v2
v4
v4
v5
o2
o2
o2
o2
o2
v0
v0
v2
v4
v5
v5
o2
o2
o2
o2
o2
o2
n2.64
v0
v0
v3
v3
v3
v3
o2
o2
o2
o2
o2
o2
n7
v0
v0
v3
v3
v3
v4
o2
o2
o2
o2
o2
o2
n0.56
v0
v0
v3
v3
v3
v5
o16
o2
o2
o2
o2
o2
o2
n9.05
v0
v0
v3
v3
v4
v5
o2
o2
o2
o2
o2
o2
n4.14
v0
v0
v3
v3
v5
v5
o2
o2
o2
o2
o2
o2
n3.77
v0
v0
v3
v4
v4
v4
o2
o2
o2
o2
o2
o2
n8.97
v0
v0
v3
v4
v5
v5
o16
o2
o2
o2
o2
o2
o2
n6.48
v0
v0
v4
v4
v4
v4
o2
o2
o2
o2
o2
o2
n7.38
v0
v0
v4
v5
v5
v5
o2
o2
o2
o2
o2
o2
n7.61
v0
v0
v5
v5
v5
v5
o16
o2
o2
o2
o2
o2
o2
n8.39
v0
v1
v1
v1
v1
v1
o2
o2
o2
o2
o2
o2
n4.71
v0
v1
v1
v1
v1
v5
o2
o2
o2
o2
o2
o2
n8.41
v0
v1
v1
v1
v2
v3
o2
o2
o2
o2
o2
o2
n1.7
v0
v1
v1
v1
v2
v4
o16
o2
o2
o2
o2
o2
o2
n6.93
v0
v1
v1
v1
v3
v3
o2
o2
o2
o2
o2
o2
n1.85
v0
v1
v1
v1
v3
v4
o2
o2
o2
o2
o2
o2
n5.98
v0
v1
v1
v1
v3
v5
o2
o2
o2
o2
o2
o2
n6.16
v0
v1
v1
v1
v5
v5
o16
o2
o2
o2
o2
o2
o2
n7.71
v0
v1
v1
v2
v2
v2
o2
o2
o2
o2
o2
o2
n3.54
v0
v1
v1
v2
v3
v4
o2
o2
o2
o2
o2
o2
n8.94
v0
v1
v1
v2
v4
v4
o2
o2
o2
o2
o2
o2
n4.53
v0
v1
v1
v2
v4
v5
o16
o2
o2
o2
o2
o2
o2
n6.86
v0
v1
v1
v3
v4
v5
o2
o2
o2
o2
o2
o2
n4.99
v0
v1
v1
v3
v5
v5
o2
o2
o2
o2
o2
o2
n4.88
v0
v1
v1
v4
v4
v4
o2
o2
o2
o2
o2
o2
n1.4
v0
v1
v1
v4
v5
v5
o2
o2
o2
o2
o2
o2
n2.76
v0
v1
v1
v5
v5
v5
o2
o2
o2
o2
o2
o2
n4.3
v0
v1
v2
v2
v2
v3
o2
o2
o2
o2
o2
o2
n10
v0
v1
v2
v2
v2
v5
o2
o2
o2
o2
o2
o2
n1.41
v0
v1
v2
v2
v3
v3
o2
o2
o2
o2
o2
o2
n6.59
v0
v1
v2
v2
v4
v4
o2
o2
o2
o2
o2
o2
n7.06
v0
v1
v2
v2
v4
v5
o2
o2
o2
o2
o2
o2
n0.24
v0
v1
v2
v3
v3
v4
o2
o2
o2
o2
o2
o2
n9.42
v0
v1
v2
v3
v4
v4
o16
o2
o2
o2
o2
o2
o2
n4.05
v0
v1
v2
v3
v4
v5
o16
o2
o2
o2
o2
o2
o2
n2.14
v0
v1
v2
v4
v4
v5
o2
o2
o2
o2
o2
o2
n3.7
v0
v1
v3
v3
v3
v3
o2
o2
o2
o2
o2
o2
n1.96
v0
v1
v3
v3
v3
v5
o2
o2
o2
o2
o2
o2
n8.36
v0
v1
v3
v3
v4
v4
o2
o2
o2
o2
o2
o2
n8.78
v0
v1
v3
v4
v4
v4
o16
o2
o2
o2
o2
o2
o2
n4.2
v0
v1
v3
v4
v4
v5
o2
o2
o2
o2
o2
o2
n9.92
v0
v1
v4
v4
v5
v5
o2
o2
o2
o2
o2
o2
n4.59
v0
v1
v4
v5
v5
v5
o2
o2
o2
o2
o2
o2
n4.91
v0
v2
v2
v2
v2
v3
o2
o2
o2
o2
o2
o2
n6.23
v0
v2
v2
v2
v2
v4
o2
o2
o2
o2
o2
o2
n2.53
v0
v2
v2
v2
v2
v5
o2
o2
o2
o2
o2
o2
n5.05
v0
v2
v2
v2
v4
v4
o2
o2
o2
o2
o2
o2
n6.69
v0
v2
v2
v3
v3
v3
o2
o2
o2
o2
o2
o2
n1.06
v0
v2
v2
v3
v4
v5
o2
o2
o2
o2
o2
o2
n2.5
v0
v2
v2
v3
v5
v5
o16
o2
o2
o2
o2
o2
o2
n6.18
v0
v2
v2
v4
v5
v5
o2
o2
o2
o2
o2
o2
n9.37
v0
v2
v3
v3
v3
v3
o2
o2
o2
o2
o2
o2
n4.12
v0
v2
v3
v3
v4
v4
o2
o2
o2
o2
o2
o2
n2.48
v0
v2
v3
v4
v5
v5
o2
o2
o2
o2
o2
o2
n6.43
v0
v2
v4
v4
v4
v5
o2
o2
o2
o2
o2
o2
n9.34
v0
v2
v4
v4
v5
v5
o16
o2
o2
o2
o2
o2
o2
n3.63
v0
v2
v4
v5
v5
v5
o2
o2
o2
o2
o2
o2
n2.82
v0
v3
v3
v3
v3
v3
o2
o2
o2
o2
o2
o2
n5.63
v0
v3
v3
v3
v3
v5
o2
o2
o2
o2
o2
o2
n7.46
v0
v3
v3
v3
v4
v4
o2
o2
o2
o2
o2
o2
n0.48
v0
v3
v3
v3
v5
v5
o2
o2
o2
o2
o2
o2
n0.41
v0
v3
v3
v4
v4
v5
o2
o2
o2
o2
o2
o2
n5.42
v0
v3
v3
v5
v5
v5
o2
o2
o2
o2
o2
o2
n3.62
v0
v3
v4
v4
v4
v4
o16
o2
o2
o2
o2
o2
o2
n9.39
v0
v3
v4
v4
v4
v5
o2
o2
o2
o2
o2
o2
n8.94
v0
v3
v4
v4
v5
v5
o16
o2
o2
o2
o2
o2
o2
n1.03
v0
v4
v4
v4
v4
v4
o2
o2
o2
o2
o2
o2
n2.56
v0
v4
v4
v4
v4
v5
o2
o2
o2
o2
o2
o2
n1.25
v0
v4
v4
v5
v5
v5
o2
o2
o2
o2
o2
o2
n0.37
v0
v4
v5
v5
v5
v5
o2
o2
o2
o2
o2
o2
n4.32
v1
v1
v1
v1
v1
v1
o2
o2
o2
o2
o2
o2
n0.95
v1
v1
v1
v1
v1
v2
o2
o2
o2
o2
o2
o2
n6.79
v1
v1
v1
v1
v1
v3
o2
o2
o2
o2
o2
o2
n7.54
v1
v1
v1
v1
v2
v2
o2
o2
o2
o2
o2
o2
n7.99
v1
v1
v1
v1
v2
v3
o2
o2
o2
o2
o2
o2
n5.7
v1
v1
v1
v1
v2
v5
o2
o2
o2
o2
o2
o2
n1.44
v1
v1
v1
v1
v3
v3
o2
o2
o2
o2
o2
o2
n8.19
v1
v1
v1
v1
v4
v4
o16
o2
o2
o2
o2
o2
o2
n1.1
v1
v1
v1
v1
v5
v5
o2
o2
o2
o2
o2
o2
n3.55
v1
v1
v1
v2
v2
v2
o16
o2
o2
o2
o2
o2
o2
n1.48
v1
v1
v1
v2
v2
v5
o2
o2
o2
o2
o2
o2
n0.12
v1
v1
v1
v2
v3
v3
o16
o2
o2
o2
o2
o2
o2
n5.86
v1
v1
v1
v2
v3
v4
o2
o2
o2
o2
o2
o2
n1.86
v1
v1
v1
v2
v4
v4
o2
o2
o2
o2
o2
o2
n1.41
v1
v1
v1
v2
v4
v5
o16
o2
o2
o2
o2
o2
o2
n7.67
v1
v1
v1
v3
v3
v3
o2
o2
o2
o2
o2
o2
n5.59
v1
v1
v1
v3
v3
v4
o2
o2
o2
o2
o2
o2
n0.71
v1
v1
v1
v3
v3
v5
o2
o2
o2
o2
o2
o2
n2.59
v1
v1
v1
v3
v4
v5
o2
o2
o2
o2
o2
o2
n9.35
v1
v1
v1
v4
v4
v4
o2
o2
o2
o2
o2
o2
n4.04
v1
v1
v1
v4
v4
v5
o2
o2
o2
o2
o2
o2
n6.19
v1
v1
v2
v2
v2
v2
o2
o2
o2
o2
o2
o2
n3.1
v1
v1
v2
v2
v2
v3
o2
o2
o2
o2
o2
o2
n6.85
v1
v1
v2
v2
v3
v3
o2
o2
o2
o2
o2
o2
n5.81
v1
v1
v2
v2
v4
v5
o2
o2
o2
o2
o2
o2
n4.99
v1
v1
v2
v2
v5
v5
o2
o2
o2
o2
o2
o2
n8.92
v1
v1
v2
v3
v3
v3
o2
o2
o2
o2
o2
o2
n5.21
v1
v1
v2
v3
v3
v4
o2
o2
o2
o2
o2
o2
n8.19
v1
v1
v2
v3
v4
v4
o2
o2
o2
o2
o2
o2
n0.24
v1
v1
v2
v3
v5
v5
o2
o2
o2
o2
o2
o2
n6.27
v1
v1
v2
v4
v4
v5
o2
o2
o2
o2
o2
o2
n4.26
v1
v1
v2
v5
v5
v5
o2
o2
o2
o2
o2
o2
n4.13
v1
v1
v3
v3
v4
v4
o2
o2
o2
o2
o2
o2
n8.54
v1
v1
v3
v4
v4
v4
o2
o2
o2
o2
o2
o2
n5.26
v1
v1
v3
v4
v4
v5
o2
o2
o2
o2
o2
o2
n1.33
v1
v1
v4
v4
v4
v4
o2
o2
o2
o2
o2
o2
n6.5
v1
v1
v4
v4
v4
v5
o2
o2
o2
o2
o2
o2
n8.28
v1
v1
v4
v4
v5
v5
o2
o2
o2
o2
o2
o2
n4.77
v1
v1
v4
v5
v5
v5
o2
o2
o2
o2
o2
o2
n5.17
v1
v2
v2
v2
v2
v2
o2
o2
o2
o2
o2
o2
n3.59
v1
v2
v2
v2
v3
v3
o2
o2
o2
o2
o2
o2
n9.27
v1
v2
v2
v2
v3
v4
o2
o2
o2
o2
o2
o2
n8.58
v1
v2
v2
v2
v4
v4
o2
o2
o2
o2
o2
o2
n1.18
v1
v2
v2
v2
v4
v5
o2
o2
o2
o2
o2
o2
n5.9
v1
v2
v2
v2
v5
v5
o2
o2
o2
o2
o2
o2
n3.48
v1
v2
v2
v3
v3
v3
o2
o2
o2
o2
o2
o2
n2.78
v1
v2
v2
v3
v3
v5
o2
o2
o2
o2
o2
o2
n7.83
v1
v2
v2
v3
v4
v4
o16
o2
o2
o2
o2
o2
o2
n4.12
v1
v2
v2
v3
v5
v5
o2
o2
o2
o2
o2
o2
n7.16
v1
v2
v2
v4
v4
v5
o2
o2
o2
o2
o2
o2
n4.34
v1
v2
v2
v5
v5
v5
o2
o2
o2
o2
o2
o2
n4.36
v1
v2
v3
v3
v3
v5
o2
o2
o2
o2
o2
o2
n8.38
v1
v2
v3
v3
v4
v5
o2
o2
o2
o2
o2
o2
n4.17
v1
v2
v3
v4
v4
v4
o2
o2
o2
o2
o2
o2
n1.07
v1
v2
v4
v4
v4
v4
o16
o2
o2
o2
o2
o2
o2
n9.74
v1
v2
v4
v4
v4
v5
o2
o2
o2
o2
o2
o2
n8.79
v1
v2
v4
v4
v5
v5
o2
o2
o2
o2
o2
o2
n0.5
v1
v3
v3
v3
v3
v4
o2
o2
o2
o2
o2
o2
n2.68
v1
v3
v3
v3
v4
v4
o2
o2
o2
o2
o2
o2
n2.84
v1
v3
v3
v3
v4
v5
o16
o2
o2
o2
o2
o2
o2
n7.17
v1
v3
v3
v4
v4
v5
o2
o2
o2
o2
o2
o2
n0.14
v1
v3
v3
v4
v5
v5
o2
o2
o2
o2
o2
o2
n3.22
v1
v3
v4
v4
v4
v4
o2
o2
o2
o2
o2
o2
n3.88
v1
v3
v4
v4
v4
v5
o2
o2
o2
o2
o2
o2
n0.07
v1
v3
v4
v5
v5
v5
o2
o2
o2
o2
o2
o2
n2.12
v1
v3
v5
v5
v5
v5
o2
o2
o2
o2
o2
o2
n4.7
v1
v4
v5
v5
v5
v5
o2
o2
o2
o2
o2
o2
n7.17
v1
v5
v5
v5
v5
v5
o2
o2
o2
o2
o2
o2
n3.03
v2
v2
v2
v2
v2
v2
o2
o2
o2
o2
o2
o2
n8.84
v2
v2
v2
v2
v2
v4
o16
o2
o2
o2
o2
o2
o2
n1.93
v2
v2
v2
v2
v2
v5
o2
o2
o2
o2
o2
o2
n4.98
v2
v2
v2
v2
v3
v5
o2
o2
o2
o2
o2
o2
n6.07
v2
v2
v2
v2
v4
v5
o2
o2
o2
o2
o2
o2
n5.65
v2
v2
v2
v3
v3
v3
o2
o2
o2
o2
o2
o2
n8.72
v2
v2
v2
v3
v3
v4
o2
o2
o2
o2
o2
o2
n2.79
v2
v2
v2
v3
v4
v4
o2
o2
o2
o2
o2
o2
n0.48
v2
v2
v2
v3
v4
v5
o2
o2
o2
o2
o2
o2
n1.65
v2
v2
v2
v3
v5
v5
o2
o2
o2
o2
o2
o2
n5.2
v2
v2
v2
v5
v5
v5
o2
o2
o2
o2
o2
o2
n5.73
v2
v2
v3
v3
v4
v5
o2
o2
o2
o2
o2
o2
n6.8
v2
v2
v3
v4
v4
v4
o16
o2
o2
o2
o2
o2
o2
n1.77
v2
v2
v3
v4
v4
v5
o2
o2
o2
o2
o2
o2
n6.5
v2
v2
v3
v4
v5
v5
o16
o2
o2
o2
o2
o2
o2
n6.25
v2
v2
v4
v4
v4
v5
o2
o2
o2
o2
o2
o2
n4.08
v2
v2
v4
v5
v5
v5
o2
o2
o2
o2
o2
o2
n0.11
v2
v2
v5
v5
v5
v5
o2
o2
o2
o2
o2
o2
n2.61
v2
v3
v3
v3
v3
v3
o2
o2
o2
o2
o2
o2
n3.09
v2
v3
v3
v3
v3
v5
o2
o2
o2
o2
o2
o2
n0.41
v2
v3
v4
v5
v5
v5
o16
o2
o2
o2
o2
o2
o2
n4.46
v2
v3
v5
v5
v5
v5
o2
o2
o2
o2
o2
o2
n9.52
v2
v4
v4
v4
v4
v4
o16
o2
o2
o2
o2
o2
o2
n1.46
v2
v4
v4
v4
v4
v5
o2
o2
o2
o2
o2
o2
n4.64
v2
v4
v4
v4
v5
v5
o2
o2
o2
o2
o2
o2
n2.2
v2
v4
v4
v5
v5
v5
o2
o2
o2
o2
o2
o2
n1.59
v2
v5
v5
v5
v5
v5
o2
o2
o2
o2
o2
o2
n4.5
v3
v3
v3
v3
v4
v4
o2
o2
o2
o2
o2
o2
n9.43
v3
v3
v3
v4
v4
v4
o2
o2
o2
o2
o2
o2
n7.27
v3
v3
v3
v4
v5
v5
o2
o2
o2
o2
o2
o2
n5.21
v3
v3
v4
v4
v4
v4
o2
o2
o2
o2
o2
o2
n5.95
v3
v4
v4
v4
v5
v5
o2
o2
o2
o2
o2
o2
n5.49
v3
v4
v4
v5
v5
v5
o2
o2
o2
o2
o2
o2
n8.57
v4
v4
v4
v4
v4
v5
o2
o2
o2
o2
o2
o2
n3.66
v4
v4
v4
v4
v5
v5
o2
o2
o2
o2
o2
o2
n4.12
v4
v4
v5
v5
v5
v5
k5
5
11
17
22
27
J0 6
0 2.12
1 5.76
2 7.18
3 3.68
4 5.34
5 4.73
J1 6
0 2.61
1 0.37
2 3.73
3 9.49
4 0.54
5 2.12
J2 6
0 3.36
1 1.54
2 3.95
3 6.14
4 3.37
5 3.17
J3 6
0 3.39
1 9.73
2 3.09
3 -5.06
4 -2.38
5 9.7
J4 3
1 7.09
2 -3.94
5 7.5
J5 6
0 5.25
1 7.82
2 -3.07
3 3.39
4 6.11
5 3.38
G0 6
0 1.79
1 8.43
2 1.33
3 -3.01
4 5.74
5 9.85
